Optimal - objective value 191.00000000
      0 C                       191                       0
      1 x_0_0       1.00000000000001                       0
      2 x_0_1       41.0000000000001                       0
      3 x_0_2       49.0000000000001                       0
      4 x_0_3       53.0000000000001                       0
      5 x_0_4                   161                       0
      6 x_0_5                   170                       0
      8 x_1_1       3.00000000000001                       0
      9 x_1_2       65.0000000000001                       0
     10 x_1_3                   127                       0
     11 x_1_4                   132                       0
     12 x_1_5                   163                       0
     13 x_2_0       9.99999999999999                       0
     14 x_2_1                    84                       0
     15 x_2_2                   142                       0
     16 x_2_3                   149                       0
     17 x_2_4                   154                       0
     18 x_2_5                   163                       0
     20 x_3_1                   139                       0
     21 x_3_2                   143                       0
     22 x_3_3                   149                       0
     23 x_3_4                   159                       0
     24 x_3_5                   170                       0
     25 x_4_0                     2                       0
     26 x_4_1       29.0000000000001                       0
     27 x_4_2       53.0000000000001                       0
     28 x_4_3                    83                       0
     29 x_4_4                   130                       0
     30 x_4_5                   132                       0
     31 x_5_0       26.0000000000001                       0
     32 x_5_1       27.0000000000001                       0
     33 x_5_2       29.0000000000001                       0
     34 x_5_3       86.0000000000001                       0
     35 x_5_4                   183                       0
     36 x_5_5                   188                       0
     37 x_6_0       15.0000000000001                       0
     38 x_6_1       40.0000000000001                       0
     39 x_6_2       53.0000000000001                       0
     40 x_6_3       63.0000000000001                       0
     41 x_6_4                   130                       0
     42 x_6_5                   139                       0
     44 x_7_1                     1                       0
     45 x_7_2       22.0000000000001                       0
     46 x_7_3       29.0000000000001                       0
     47 x_7_4       56.0000000000001                       0
     48 x_7_5                   118                       0
     49 x_8_0                    60                       0
     50 x_8_1                    83                       0
     51 x_8_2                   116                       0
     52 x_8_3                   121                       0
     53 x_8_4                   126                       0
     54 x_8_5                   154                       0
     56 y_0_1_1                   1                       0
     59 y_0_1_4                   1                       0
     62 y_0_2_1                   1                       0
     63 y_0_2_2                   1                       0
     65 y_0_2_4                   1                       0
     68 y_0_3_1                   1                       0
     69 y_0_3_2                   1                       0
     74 y_0_4_1                   1                       0
     77 y_0_4_4                   1                       0
     80 y_0_5_1                   1                       0
     83 y_0_5_4                   1                       0
     84 y_0_5_5                   1                       0
     86 y_0_6_1                   1                       0
     88 y_0_6_3                   1                       0
     89 y_0_6_4                   1                       0
     91 y_0_7_0                   1                     718
     92 y_0_7_1                   1                       0
     95 y_0_7_4                   1                       0
     96 y_0_7_5                   1                       0
     98 y_0_8_1                   1                       0
    101 y_0_8_4                   1                       0
    104 y_1_2_1                   1                       0
    105 y_1_2_2                   1                       0
    110 y_1_3_1                   1                       0
    111 y_1_3_2                   1                       0
    116 y_1_4_1                   1                       0
    118 y_1_4_3                   1                       0
    120 y_1_4_5                   1                       0
    122 y_1_5_1                   1                       0
    126 y_1_5_5                   1                       0
    128 y_1_6_1                   1                       0
    129 y_1_6_2                   1                       0
    130 y_1_6_3                   1                       0
    133 y_1_7_0                   1                       0
    134 y_1_7_1                   1                       0
    136 y_1_7_3                   1                       0
    138 y_1_7_5                   1                       0
    140 y_1_8_1                   1                       0
    142 y_1_8_3                   1                       0
    145 y_2_3_0                   1                       0
    147 y_2_3_2                   1                       0
    148 y_2_3_3                   1                       0
    150 y_2_3_5                   1                       0
    151 y_2_4_0                   1                       0
    152 y_2_4_1                   1                       0
    154 y_2_4_3                   1                       0
    155 y_2_4_4                   1                       0
    156 y_2_4_5                   1                       0
    158 y_2_5_1                   1                       0
    161 y_2_5_4                   1                       0
    162 y_2_5_5                   1                       0
    163 y_2_6_0                   1                       0
    164 y_2_6_1                   1                       0
    166 y_2_6_3                   1                       0
    167 y_2_6_4                   1                       0
    168 y_2_6_5                   1                       0
    169 y_2_7_0                   1                       0
    170 y_2_7_1                   1                       0
    172 y_2_7_3                   1                       0
    173 y_2_7_4                   1                       0
    174 y_2_7_5                   1                       0
    175 y_2_8_0                   1                       0
    176 y_2_8_1                   1                       0
    178 y_2_8_3                   1                       0
    179 y_2_8_4                   1                       0
    181 y_3_4_0                   1                       0
    182 y_3_4_1                   1                       0
    184 y_3_4_3                   1                       0
    185 y_3_4_4                   1                       0
    186 y_3_4_5                   1                       0
    188 y_3_5_1                   1                       0
    191 y_3_5_4                   1                       0
    192 y_3_5_5                   1                       0
    193 y_3_6_0                   1                       0
    194 y_3_6_1                   1                       0
    196 y_3_6_3                   1                       0
    197 y_3_6_4                   1                       0
    198 y_3_6_5                   1                       0
    199 y_3_7_0                   1                       0
    200 y_3_7_1                   1                       0
    202 y_3_7_3                   1                       0
    203 y_3_7_4                   1                       0
    204 y_3_7_5                   1                       0
    205 y_3_8_0                   1                       0
    206 y_3_8_1                   1                       0
    208 y_3_8_3                   1                       0
    209 y_3_8_4                   1                       0
    212 y_4_5_1                   1                       0
    213 y_4_5_2                   1                       0
    216 y_4_5_5                   1                       0
    219 y_4_6_2                   1                       0
    220 y_4_6_3                   1                       0
    223 y_4_7_0                   1                       0
    224 y_4_7_1                   1                       0
    225 y_4_7_2                   1                       0
    228 y_4_7_5                   1                       0
    229 y_4_8_0                   1                     718
    231 y_4_8_2                   1                       0
    235 y_5_6_0                   1                       0
    237 y_5_6_2                   1                       0
    238 y_5_6_3                   1                       0
    239 y_5_6_4                   1                       0
    241 y_5_7_0                   1                       0
    242 y_5_7_1                   1                       0
    244 y_5_7_3                   1                       0
    245 y_5_7_4                   1                       0
    247 y_5_8_0                   1                       0
    250 y_5_8_3                   1                       0
    253 y_6_7_0                   1                       0
    254 y_6_7_1                   1                       0
    258 y_6_7_5                   1                       0
    259 y_6_8_0                   1                       0
